<instance format="XCSP3" type="CSP">
  <variables>
    <var id="x0"> 1 12 </var>
    <var id="x1"> 10 14 </var>
    <var id="x2"> 0 1 4 14 </var>
    <var id="x3"> 7 10 12 14 </var>
    <var id="x4"> 0 1 4 7 12 </var>
    <var id="x5"> 0 1 10 14 </var>
    <var id="x6"> 7 10 </var>
    <var id="x7"> 0 6 10 12 </var>
    <var id="x8"> 0 6 9 </var>
    <var id="x9"> 6 9 10 12 13 </var>
    <var id="x10"> 9 10 12 13 </var>
    <var id="x11"> 0 6 8 9 13 </var>
    <var id="x12"> 6 9 10 12 </var>
    <var id="x13"> 0 6 10 13 </var>
    <var id="x14"> 1 2 11 13 </var>
    <var id="x15"> 7 13 </var>
    <var id="x16"> 1 4 7 </var>
    <var id="x17"> 2 7 </var>
    <var id="x18"> 1 2 11 </var>
    <var id="x19"> 1 5 13 </var>
    <var id="x20"> 5 7 11 </var>
    <var id="x21"> 2 9 10 14 </var>
    <var id="x22"> 0 10 12 14 </var>
    <var id="x23"> 0 2 9 </var>
    <var id="x24"> 2 7 12 </var>
    <var id="x25"> 2 7 9 10 12 14 </var>
    <var id="x26"> 0 2 9 10 12 </var>
    <var id="x27"> 0 10 14 </var>
    <var id="x28"> 2 3 </var>
    <var id="x29"> 2 6 14 </var>
    <var id="x30"> 0 5 6 14 </var>
    <var id="x31"> 0 3 6 14 </var>
    <var id="x32"> 0 2 5 6 </var>
    <var id="x33"> 3 6 7 14 </var>
    <var id="x34"> 2 3 6 7 </var>
    <var id="x35"> 6 9 </var>
    <var id="x36"> 6 9 13 </var>
    <var id="x37"> 6 7 10 12 </var>
    <var id="x38"> 6 7 9 10 12 </var>
    <var id="x39"> 9..12 </var>
    <var id="x40"> 6 10 13 </var>
    <var id="x41"> 6 7 10 11 </var>
    <var id="x42"> 0 5 10 11 </var>
    <var id="x43"> 0 5 8 </var>
    <var id="x44"> 3 7 10 </var>
    <var id="x45"> 7 8 11 </var>
    <var id="x46"> 3 7 10 </var>
    <var id="x47"> 0 7 11 </var>
    <var id="x48"> 5 7 10 </var>
    <var id="x49"> 11 </var>
    <var id="x50"> 0 9 14 </var>
    <var id="x51"> 7 11 </var>
    <var id="x52"> 0 7 9 11 </var>
    <var id="x53"> 5 7 9 10 14 </var>
    <var id="x54"> 0 9..11 </var>
    <var id="x55"> 5 7 10 11 </var>
    <var id="x56"> 11..13 </var>
    <var id="x57"> 5 6 11 12 14 </var>
    <var id="x58"> 5 9 11..13 </var>
    <var id="x59"> 6 12 14 </var>
    <var id="x60"> 9 11 12 </var>
    <var id="x61"> 5 9 12 14 </var>
    <var id="x62"> 5 6 11 </var>
    <var id="x63"> 1 3 11 </var>
    <var id="x64"> 6 10 11 14 </var>
    <var as="x64" id="x65"/>
    <var id="x66"> 1 3 4 6 14 </var>
    <var id="x67"> 6 10 14 </var>
    <var id="x68"> 3 6 10 </var>
    <var id="x69"> 1 10 11 </var>
    <var id="x70"> 6 11 12 </var>
    <var id="x71"> 9 11..13 </var>
    <var id="x72"> 2 6 9 13 </var>
    <var id="x73"> 2 6 11..13 </var>
    <var id="x74"> 1 9 11 12 </var>
    <var id="x75"> 2 9 12 </var>
    <var id="x76"> 1 6 13 </var>
    <var id="x77"> 7 9 12 13 </var>
    <var id="x78"> 6 9 13 </var>
    <var id="x79"> 1 3 6 7 12 </var>
    <var id="x80"> 6 7 12 13 </var>
    <var id="x81"> 1 7 9 12 </var>
    <var id="x82"> 1 9 12 </var>
    <var id="x83"> 3 6 7 </var>
    <var id="x84"> 1..3 8 12 </var>
    <var id="x85"> 2 6 9 10 </var>
    <var id="x86"> 1 3 6 9 </var>
    <var id="x87"> 6 9 10 12 </var>
    <var id="x88"> 9 10 12 </var>
    <var id="x89"> 1 3 6 10 12 </var>
    <var id="x90"> 1 9 12 </var>
    <var id="x91"> 1 6 10 </var>
    <var id="x92"> 2 6 10 13 14 </var>
    <var id="x93"> 6 10 12..14 </var>
    <var id="x94"> 5 10 12 13 </var>
    <var id="x95"> 6 10 12 14 </var>
    <var id="x96"> 2 6 12 13 </var>
    <var id="x97"> 2 6 10 12 </var>
    <var id="x98"> 2 5 10 12 14 </var>
    <var id="x99"> 2 6 9..11 </var>
    <var id="x100"> 6 9 10 12 </var>
    <var id="x101"> 9..12 </var>
    <var id="x102"> 2 6 8 11 12 </var>
    <var id="x103"> 2 9 10 12 </var>
    <var id="x104"> 2 9..12 </var>
    <var id="x105"> 6 8 10 11 </var>
  </variables>
  <constraints>
    <group>
      <allDifferent> %... </allDifferent>
      <args> x0 x1 x2 x3 x4 x5 x6 </args>
      <args> x7 x8 x9 x10 x11 x12 x13 </args>
      <args> x14 x15 x16 x17 x18 x19 x20 </args>
      <args> x21 x22 x23 x24 x25 x26 x27 </args>
      <args> x28 x29 x30 x31 x32 x33 x34 </args>
      <args> x35 x36 x37 x38 x39 x40 x41 </args>
      <args> x42 x43 x44 x45 x46 x47 x48 </args>
      <args> x49 x50 x51 x52 x53 x54 x55 </args>
      <args> x56 x57 x58 x59 x60 x61 x62 </args>
      <args> x63 x64 x65 x66 x67 x68 x69 </args>
      <args> x70 x71 x72 x73 x74 x75 x76 </args>
      <args> x77 x78 x79 x80 x81 x82 x83 </args>
      <args> x84 x85 x86 x87 x88 x89 x90 x91 </args>
      <args> x92 x93 x94 x95 x96 x97 x98 </args>
      <args> x99 x100 x101 x102 x103 x104 x105 </args>
      <args> x0 x14 x28 x49 x56 x63 x84 </args>
      <args> x1 x21 x29 x64 x85 x92 x99 </args>
      <args> x7 x22 x30 x42 x57 x65 x70 </args>
      <args> x2 x8 x31 x35 x50 x66 x86 </args>
      <args> x3 x9 x15 x67 x87 x93 x100 </args>
      <args> x10 x58 x71 x77 x88 x94 x101 </args>
      <args> x11 x23 x32 x36 x43 x72 x78 </args>
      <args> x16 x33 x37 x44 x59 x79 x89 x95 </args>
      <args> x24 x45 x51 x73 x80 x96 x102 </args>
      <args> x12 x17 x34 x38 x46 x68 x97 </args>
      <args> x4 x47 x52 x60 x74 x81 x90 </args>
      <args> x25 x48 x53 x61 x75 x98 x103 </args>
      <args> x18 x26 x39 x54 x69 x82 x104 </args>
      <args> x5 x13 x19 x27 x40 x76 x91 </args>
      <args> x6 x20 x41 x55 x62 x83 x105 </args>
    </group>
  </constraints>
</instance>

